#Generated by Multiwfn
&GLOBAL
  PROJECT phosphorene-ml-finall
  PRINT_LEVEL LOW
  RUN_TYPE CELL_OPT
&END GLOBAL

&FORCE_EVAL
  METHOD Quickstep
  &SUBSYS
    &CELL
      A    18.20967300     0.00000000     0.00000000
      B     0.00000000    13.22443600     0.00000000
      C     0.00000000     0.00000000    11.22110200
      PERIODIC XYZ #Direction(s) of applied PBC (geometry aspect)
    &END CELL
    &COORD
      P           0.39385702    0.00000000    6.67087781
      P          14.05111177    0.00000000    6.67087781
      P           9.49869352    0.00000000    6.67087781
      P           4.94627527    0.00000000    6.67087781
      P           0.39385702    3.30610900    6.67087781
      P          14.05111177    3.30610900    6.67087781
      P           9.49869352    3.30610900    6.67087781
      P           4.94627527    3.30610900    6.67087781
      P           0.39385702    6.61221800    6.67087781
      P          14.05111177    6.61221800    6.67087781
      P           9.49869352    6.61221800    6.67087781
      P           4.94627527    6.61221800    6.67087781
      P           0.39385702    9.91832700    6.67087781
      P          14.05111177    9.91832700    6.67087781
      P           9.49869352    9.91832700    6.67087781
      P           4.94627527    9.91832700    6.67087781
      P           4.15856123    0.00000000    4.55022419
      P          17.81581598    0.00000000    4.55022419
      P          13.26339773    0.00000000    4.55022419
      P           8.71097948    0.00000000    4.55022419
      P           4.15856123    3.30610900    4.55022419
      P          17.81581598    3.30610900    4.55022419
      P          13.26339773    3.30610900    4.55022419
      P           8.71097948    3.30610900    4.55022419
      P           4.15856123    6.61221800    4.55022419
      P          17.81581598    6.61221800    4.55022419
      P          13.26339773    6.61221800    4.55022419
      P           8.71097948    6.61221800    4.55022419
      P           4.15856123    9.91832700    4.55022419
      P          17.81581598    9.91832700    4.55022419
      P          13.26339773    9.91832700    4.55022419
      P           8.71097948    9.91832700    4.55022419
      P           2.67006614    1.65305450    4.55022419
      P          16.32732089    1.65305450    4.55022419
      P          11.77490264    1.65305450    4.55022419
      P           7.22248439    1.65305450    4.55022419
      P           2.67006614    4.95916350    4.55022419
      P          16.32732089    4.95916350    4.55022419
      P          11.77490264    4.95916350    4.55022419
      P           7.22248439    4.95916350    4.55022419
      P           2.67006614    8.26527250    4.55022419
      P          16.32732089    8.26527250    4.55022419
      P          11.77490264    8.26527250    4.55022419
      P           7.22248439    8.26527250    4.55022419
      P           2.67006614   11.57138150    4.55022419
      P          16.32732089   11.57138150    4.55022419
      P          11.77490264   11.57138150    4.55022419
      P           7.22248439   11.57138150    4.55022419
      P           1.88235211    1.65305450    6.67087781
      P          15.53960686    1.65305450    6.67087781
      P          10.98718861    1.65305450    6.67087781
      P           6.43477036    1.65305450    6.67087781
      P           1.88235211    4.95916350    6.67087781
      P          15.53960686    4.95916350    6.67087781
      P          10.98718861    4.95916350    6.67087781
      P           6.43477036    4.95916350    6.67087781
      P           1.88235211    8.26527250    6.67087781
      P          15.53960686    8.26527250    6.67087781
      P          10.98718861    8.26527250    6.67087781
      P           6.43477036    8.26527250    6.67087781
      P           1.88235211   11.57138150    6.67087781
      P          15.53960686   11.57138150    6.67087781
      P          10.98718861   11.57138150    6.67087781
      P           6.43477036   11.57138150    6.67087781
    &END COORD
    &KIND P
      ELEMENT P
      BASIS_SET DZVP-MOLOPT-SR-GTH-q5
      POTENTIAL GTH-PBE
    &END KIND
  &END SUBSYS

  &DFT
    BASIS_SET_FILE_NAME  BASIS_MOLOPT
    POTENTIAL_FILE_NAME  POTENTIAL
#   WFN_RESTART_FILE_NAME phosphorene-ml-finall-RESTART.wfn
    CHARGE    0 #Net charge
    MULTIPLICITY    1 #Spin multiplicity
    &QS
      EPS_DEFAULT 1.0E-12 #Set all EPS_xxx to values such that the energy will be correct up to this value
    &END QS
    &POISSON
      PERIODIC XYZ #Direction(s) of PBC for calculating electrostatics
      PSOLVER PERIODIC #The way to solve Poisson equation
    &END POISSON
    &XC
      &XC_FUNCTIONAL PBE
        &PBE
          PARAMETRIZATION PBESOL
        &END PBE
      &END XC_FUNCTIONAL
    &END XC
    &MGRID
      CUTOFF  400
      REL_CUTOFF  55
    &END MGRID
    &SCF
      MAX_SCF 128
      EPS_SCF 1.0E-06 #Convergence threshold of density matrix of inner SCF
#     SCF_GUESS RESTART #Use wavefunction from WFN_RESTART_FILE_NAME file as initial guess
#     IGNORE_CONVERGENCE_FAILURE #Continue calculation even if SCF not converged, works for version >= 2024.1
      &DIAGONALIZATION
        ALGORITHM STANDARD #Algorithm for diagonalization
      &END DIAGONALIZATION
      &MIXING #How to mix old and new density matrices
        METHOD BROYDEN_MIXING #PULAY_MIXING is also a good alternative
        ALPHA 0.4 #Default. Mixing 40% of new density matrix with the old one
        NBROYDEN 8 #Default is 4. Number of previous steps stored for the actual mixing scheme
      &END MIXING
      &PRINT
        &RESTART #Note: Use "&RESTART OFF" can prevent generating .wfn file
          BACKUP_COPIES 0 #Maximum number of backup copies of wfn file. 0 means never
        &END RESTART
      &END PRINT
    &END SCF
  &END DFT
  &PRINT
    &STRESS_TENSOR ON #Print stress tensor
    &END STRESS_TENSOR
  &END PRINT
  STRESS_TENSOR ANALYTICAL #Compute full stress tensor analytically
&END FORCE_EVAL

&MOTION
  &CELL_OPT
    MAX_ITER 400 #Maximum number of geometry optimization
    EXTERNAL_PRESSURE  1.01325E+00 #External pressure for cell optimization (bar)
    CONSTRAINT NONE #Constraint of cell length, can be: NONE, X, Y, Z, XY, XZ, YZ
    KEEP_ANGLES F #If T, then cell angles will be kepted
    KEEP_SYMMETRY F #If T, then cell symmetry specified by &CELL / SYMMETRY will be kepted
    KEEP_SPACE_GROUP F #If T, then space group will be detected and preserved
    TYPE DIRECT_CELL_OPT #Geometry and cell are optimized at the same time. Can also be GEO_OPT, MD
    #The following thresholds of optimization convergence are the default ones
    MAX_DR 3E-3 #Maximum geometry change
    RMS_DR 1.5E-3 #RMS geometry change
    MAX_FORCE 4.5E-4 #Maximum force
    RMS_FORCE 3E-4 #RMS force
    PRESSURE_TOLERANCE 100 #Pressure tolerance (w.r.t EXTERNAL_PRESSURE)
    OPTIMIZER BFGS #Can also be CG (more robust for difficult cases) or LBFGS
    &BFGS
      TRUST_RADIUS 0.2 #Trust radius (maximum stepsize) in Angstrom
#     RESTART_HESSIAN T #If read initial Hessian, uncomment this line and specify the file in the next line
#     RESTART_FILE_NAME to_be_specified
    &END BFGS
  &END CELL_OPT
  &PRINT
    &TRAJECTORY
      FORMAT pdb
    &END TRAJECTORY
    &RESTART
      BACKUP_COPIES 0 #Maximum number of backing up restart file, 0 means never
    &END RESTART
    &RESTART_HISTORY OFF 
    &END RESTART_HISTORY
  &END PRINT
&END MOTION
